(set-info :source |printed by MathSAT|)
(declare-fun |.x{283}| () Int)
(declare-fun |.x{292}| () Int)
(declare-fun |.x{284}| () Int)
(declare-fun |.y{3}| () Int)
(declare-fun |.x{285}| () (Array Int Int))
(declare-fun |.x{293}| () (Array Int Int))
(declare-fun |.x{286}| () Int)
(declare-fun |.x{291}| () Int)
(declare-fun |.y{2}| () Int)
(declare-fun |.x{294}| () Int)
(declare-fun |.loc{5}| () Bool)
(declare-fun |.loc{9}| () Bool)
(declare-fun |.loc{6}| () Bool)
(declare-fun |.loc{10}| () Bool)
(declare-fun |.loc{7}| () Bool)
(declare-fun |.loc{11}| () Bool)
(declare-fun |.loc{8}| () Bool)
(declare-fun |.loc{12}| () Bool)
(declare-fun |.x{302}| () Int)
(declare-fun |.x{320}| () Int)
(define-fun .def_18 () Bool (! |.loc{5}| :next |.loc{9}|))
(define-fun .def_82 () Bool (not .def_18))
(define-fun .def_20 () Bool (! |.loc{6}| :next |.loc{10}|))
(define-fun .def_55 () Bool (not .def_20))
(define-fun .def_328 () Bool (and .def_55 .def_82))
(define-fun .def_22 () Bool (! |.loc{7}| :next |.loc{11}|))
(define-fun .def_57 () Bool (not .def_22))
(define-fun .def_329 () Bool (and .def_57 .def_328))
(define-fun .def_24 () Bool (! |.loc{8}| :next |.loc{12}|))
(define-fun .def_48 () Bool (not .def_24))
(define-fun .def_330 () Bool (! (and .def_48 .def_329) :init true))
(define-fun .def_298 () Bool (= |.x{291}| 0))
(define-fun .def_14 () Int (! |.x{286}| :next |.x{291}|))
(define-fun .def_295 () Bool (= .def_14 |.x{294}|))
(define-fun .def_296 () Bool (and .def_18 .def_295))
(define-fun .def_297 () Bool (and .def_55 .def_296))
(define-fun .def_299 () Bool (and .def_297 .def_298))
(define-fun .def_10 () Int (! |.x{284}| :next |.y{3}|))
(define-fun .def_62 () Bool (<= .def_14 .def_10))
(define-fun .def_300 () Bool (and .def_62 .def_299))
(define-fun .def_12 () (Array Int Int) (! |.x{285}| :next |.x{293}|))
(define-fun .def_292 () Int (select .def_12 |.x{302}|))
(define-fun .def_293 () Bool (= .def_292 50))
(define-fun .def_16 () Int (! |.y{2}| :next |.x{294}|))
(define-fun .def_289 () Bool (= .def_16 |.x{294}|))
(define-fun .def_285 () Int (* (- 1) |.x{291}|))
(define-fun .def_286 () Int (+ .def_14 .def_285))
(define-fun .def_287 () Bool (= .def_286 (- 1)))
(define-fun .def_279 () Bool (<= .def_16 .def_14))
(define-fun .def_280 () Bool (not .def_279))
(define-fun .def_50 () Int (* (- 1) |.x{302}|))
(define-fun .def_276 () Int (+ .def_14 .def_50))
(define-fun .def_8 () Int (! |.x{283}| :next |.x{292}|))
(define-fun .def_277 () Int (+ .def_8 .def_276))
(define-fun .def_278 () Bool (= .def_277 0))
(define-fun .def_281 () Bool (and .def_278 .def_280))
(define-fun .def_39 () Bool (<= |.x{302}| 0))
(define-fun .def_40 () Bool (not .def_39))
(define-fun .def_38 () Bool (<= .def_8 0))
(define-fun .def_41 () Bool (or .def_38 .def_40))
(define-fun .def_282 () Bool (and .def_41 .def_281))
(define-fun .def_46 () Bool (not .def_38))
(define-fun .def_283 () Bool (and .def_46 .def_282))
(define-fun .def_284 () Bool (and .def_20 .def_283))
(define-fun .def_288 () Bool (and .def_284 .def_287))
(define-fun .def_290 () Bool (and .def_288 .def_289))
(define-fun .def_291 () Bool (and .def_82 .def_290))
(define-fun .def_294 () Bool (and .def_291 .def_293))
(define-fun .def_301 () Bool (or .def_294 .def_300))
(define-fun .def_302 () Bool (and |.loc{10}| .def_301))
(define-fun .def_99 () Bool (not |.loc{9}|))
(define-fun .def_303 () Bool (and .def_99 .def_302))
(define-fun .def_43 () Bool (not |.loc{10}|))
(define-fun .def_270 () Bool (and .def_43 .def_55))
(define-fun .def_75 () Bool (= |.y{3}| 0))
(define-fun .def_271 () Bool (and .def_75 .def_270))
(define-fun .def_59 () Bool (= .def_14 |.x{291}|))
(define-fun .def_272 () Bool (and .def_59 .def_271))
(define-fun .def_273 () Bool (and |.loc{9}| .def_272))
(define-fun .def_274 () Bool (and .def_62 .def_273))
(define-fun .def_275 () Bool (and .def_82 .def_274))
(define-fun .def_304 () Bool (or .def_275 .def_303))
(define-fun .def_103 () Bool (= .def_12 |.x{293}|))
(define-fun .def_305 () Bool (and .def_103 .def_304))
(define-fun .def_261 () (Array Int Int) (store .def_12 |.x{302}| 50))
(define-fun .def_262 () Bool (= |.x{293}| .def_261))
(define-fun .def_33 () Int (* (- 1) |.y{3}|))
(define-fun .def_34 () Int (+ .def_10 .def_33))
(define-fun .def_35 () Bool (= .def_34 (- 1)))
(define-fun .def_85 () Bool (and .def_35 .def_41))
(define-fun .def_142 () Bool (and .def_43 .def_85))
(define-fun .def_259 () Bool (and .def_18 .def_142))
(define-fun .def_263 () Bool (and .def_259 .def_262))
(define-fun .def_264 () Bool (and .def_46 .def_263))
(define-fun .def_51 () Int (+ .def_10 .def_50))
(define-fun .def_52 () Int (+ .def_8 .def_51))
(define-fun .def_53 () Bool (= .def_52 0))
(define-fun .def_265 () Bool (and .def_53 .def_264))
(define-fun .def_266 () Bool (and .def_55 .def_265))
(define-fun .def_267 () Bool (and .def_59 .def_266))
(define-fun .def_268 () Bool (and |.loc{9}| .def_267))
(define-fun .def_63 () Bool (not .def_62))
(define-fun .def_269 () Bool (and .def_63 .def_268))
(define-fun .def_306 () Bool (or .def_269 .def_305))
(define-fun .def_307 () Bool (and .def_24 .def_306))
(define-fun .def_308 () Bool (and .def_57 .def_307))
(define-fun .def_158 () Bool (and .def_43 .def_103))
(define-fun .def_159 () Bool (and .def_18 .def_158))
(define-fun .def_160 () Bool (and .def_20 .def_159))
(define-fun .def_161 () Bool (and .def_48 .def_160))
(define-fun .def_254 () Bool (and .def_22 .def_161))
(define-fun .def_255 () Bool (and .def_75 .def_254))
(define-fun .def_256 () Bool (and .def_59 .def_255))
(define-fun .def_257 () Bool (and .def_62 .def_256))
(define-fun .def_258 () Bool (and .def_99 .def_257))
(define-fun .def_309 () Bool (or .def_258 .def_308))
(define-fun .def_240 () (Array Int Int) (store .def_12 |.x{302}| 49))
(define-fun .def_241 () Bool (= |.x{293}| .def_240))
(define-fun .def_242 () Bool (and .def_35 .def_241))
(define-fun .def_243 () Bool (and .def_41 .def_242))
(define-fun .def_244 () Bool (and .def_43 .def_243))
(define-fun .def_245 () Bool (and .def_46 .def_244))
(define-fun .def_246 () Bool (and .def_24 .def_245))
(define-fun .def_247 () Bool (and .def_53 .def_246))
(define-fun .def_248 () Bool (and .def_55 .def_247))
(define-fun .def_249 () Bool (and .def_57 .def_248))
(define-fun .def_250 () Bool (and .def_59 .def_249))
(define-fun .def_251 () Bool (and .def_63 .def_250))
(define-fun .def_252 () Bool (and .def_99 .def_251))
(define-fun .def_253 () Bool (and .def_82 .def_252))
(define-fun .def_310 () Bool (or .def_253 .def_309))
(define-fun .def_311 () Bool (and |.loc{12}| .def_310))
(define-fun .def_67 () Bool (not |.loc{11}|))
(define-fun .def_312 () Bool (and .def_67 .def_311))
(define-fun .def_131 () Bool (and .def_20 .def_103))
(define-fun .def_132 () Bool (and .def_48 .def_131))
(define-fun .def_230 () Bool (and .def_22 .def_132))
(define-fun .def_231 () Bool (and .def_75 .def_230))
(define-fun .def_232 () Bool (and .def_59 .def_231))
(define-fun .def_233 () Bool (and |.loc{9}| .def_232))
(define-fun .def_234 () Bool (and .def_62 .def_233))
(define-fun .def_235 () Bool (and |.loc{10}| .def_234))
(define-fun .def_65 () Bool (not |.loc{12}|))
(define-fun .def_236 () Bool (and .def_65 .def_235))
(define-fun .def_237 () Bool (and |.loc{11}| .def_236))
(define-fun .def_238 () Bool (and .def_82 .def_237))
(define-fun .def_313 () Bool (or .def_238 .def_312))
(define-fun .def_221 () (Array Int Int) (store .def_12 |.x{302}| 48))
(define-fun .def_222 () Bool (= |.x{293}| .def_221))
(define-fun .def_115 () Bool (and .def_18 .def_85))
(define-fun .def_116 () Bool (and .def_46 .def_115))
(define-fun .def_117 () Bool (and .def_20 .def_116))
(define-fun .def_118 () Bool (and .def_48 .def_117))
(define-fun .def_218 () Bool (and .def_22 .def_118))
(define-fun .def_219 () Bool (and .def_53 .def_218))
(define-fun .def_223 () Bool (and .def_219 .def_222))
(define-fun .def_224 () Bool (and .def_59 .def_223))
(define-fun .def_225 () Bool (and |.loc{9}| .def_224))
(define-fun .def_226 () Bool (and |.loc{10}| .def_225))
(define-fun .def_227 () Bool (and .def_63 .def_226))
(define-fun .def_228 () Bool (and .def_65 .def_227))
(define-fun .def_229 () Bool (and |.loc{11}| .def_228))
(define-fun .def_314 () Bool (or .def_229 .def_313))
(define-fun .def_104 () Bool (and .def_18 .def_103))
(define-fun .def_105 () Bool (and .def_48 .def_104))
(define-fun .def_209 () Bool (and .def_22 .def_105))
(define-fun .def_210 () Bool (and .def_55 .def_209))
(define-fun .def_211 () Bool (and .def_75 .def_210))
(define-fun .def_212 () Bool (and .def_59 .def_211))
(define-fun .def_213 () Bool (and .def_62 .def_212))
(define-fun .def_214 () Bool (and |.loc{10}| .def_213))
(define-fun .def_215 () Bool (and .def_65 .def_214))
(define-fun .def_216 () Bool (and |.loc{11}| .def_215))
(define-fun .def_217 () Bool (and .def_99 .def_216))
(define-fun .def_315 () Bool (or .def_217 .def_314))
(define-fun .def_206 () (Array Int Int) (store .def_12 |.x{302}| 47))
(define-fun .def_207 () Bool (= |.x{293}| .def_206))
(define-fun .def_86 () Bool (and .def_46 .def_85))
(define-fun .def_87 () Bool (and .def_20 .def_86))
(define-fun .def_88 () Bool (and .def_48 .def_87))
(define-fun .def_196 () Bool (and .def_22 .def_88))
(define-fun .def_197 () Bool (and .def_53 .def_196))
(define-fun .def_198 () Bool (and .def_59 .def_197))
(define-fun .def_199 () Bool (and |.loc{10}| .def_198))
(define-fun .def_200 () Bool (and .def_63 .def_199))
(define-fun .def_201 () Bool (and .def_65 .def_200))
(define-fun .def_202 () Bool (and |.loc{11}| .def_201))
(define-fun .def_203 () Bool (and .def_99 .def_202))
(define-fun .def_204 () Bool (and .def_82 .def_203))
(define-fun .def_208 () Bool (and .def_204 .def_207))
(define-fun .def_316 () Bool (or .def_208 .def_315))
(define-fun .def_186 () Bool (and .def_48 .def_158))
(define-fun .def_187 () Bool (and .def_22 .def_186))
(define-fun .def_188 () Bool (and .def_55 .def_187))
(define-fun .def_189 () Bool (and .def_75 .def_188))
(define-fun .def_190 () Bool (and .def_59 .def_189))
(define-fun .def_191 () Bool (and |.loc{9}| .def_190))
(define-fun .def_192 () Bool (and .def_62 .def_191))
(define-fun .def_193 () Bool (and .def_65 .def_192))
(define-fun .def_194 () Bool (and |.loc{11}| .def_193))
(define-fun .def_195 () Bool (and .def_82 .def_194))
(define-fun .def_317 () Bool (or .def_195 .def_316))
(define-fun .def_170 () (Array Int Int) (store .def_12 |.x{302}| 46))
(define-fun .def_171 () Bool (= |.x{293}| .def_170))
(define-fun .def_172 () Bool (and .def_35 .def_171))
(define-fun .def_173 () Bool (and .def_41 .def_172))
(define-fun .def_174 () Bool (and .def_43 .def_173))
(define-fun .def_175 () Bool (and .def_18 .def_174))
(define-fun .def_176 () Bool (and .def_46 .def_175))
(define-fun .def_177 () Bool (and .def_48 .def_176))
(define-fun .def_178 () Bool (and .def_22 .def_177))
(define-fun .def_179 () Bool (and .def_53 .def_178))
(define-fun .def_180 () Bool (and .def_55 .def_179))
(define-fun .def_181 () Bool (and .def_59 .def_180))
(define-fun .def_182 () Bool (and |.loc{9}| .def_181))
(define-fun .def_183 () Bool (and .def_63 .def_182))
(define-fun .def_184 () Bool (and .def_65 .def_183))
(define-fun .def_185 () Bool (and |.loc{11}| .def_184))
(define-fun .def_318 () Bool (or .def_185 .def_317))
(define-fun .def_162 () Bool (and .def_57 .def_161))
(define-fun .def_163 () Bool (and .def_75 .def_162))
(define-fun .def_164 () Bool (and .def_59 .def_163))
(define-fun .def_165 () Bool (and .def_62 .def_164))
(define-fun .def_166 () Bool (and .def_65 .def_165))
(define-fun .def_167 () Bool (and |.loc{11}| .def_166))
(define-fun .def_168 () Bool (and .def_99 .def_167))
(define-fun .def_319 () Bool (or .def_168 .def_318))
(define-fun .def_149 () (Array Int Int) (store .def_12 |.x{302}| 45))
(define-fun .def_150 () Bool (= |.x{293}| .def_149))
(define-fun .def_143 () Bool (and .def_46 .def_142))
(define-fun .def_144 () Bool (and .def_48 .def_143))
(define-fun .def_145 () Bool (and .def_22 .def_144))
(define-fun .def_146 () Bool (and .def_53 .def_145))
(define-fun .def_147 () Bool (and .def_55 .def_146))
(define-fun .def_151 () Bool (and .def_147 .def_150))
(define-fun .def_152 () Bool (and .def_59 .def_151))
(define-fun .def_153 () Bool (and .def_63 .def_152))
(define-fun .def_154 () Bool (and .def_65 .def_153))
(define-fun .def_155 () Bool (and |.loc{11}| .def_154))
(define-fun .def_156 () Bool (and .def_99 .def_155))
(define-fun .def_157 () Bool (and .def_82 .def_156))
(define-fun .def_320 () Bool (or .def_157 .def_319))
(define-fun .def_133 () Bool (and .def_57 .def_132))
(define-fun .def_134 () Bool (and .def_75 .def_133))
(define-fun .def_135 () Bool (and .def_59 .def_134))
(define-fun .def_136 () Bool (and |.loc{9}| .def_135))
(define-fun .def_137 () Bool (and .def_62 .def_136))
(define-fun .def_138 () Bool (and |.loc{10}| .def_137))
(define-fun .def_139 () Bool (and .def_65 .def_138))
(define-fun .def_140 () Bool (and .def_82 .def_139))
(define-fun .def_141 () Bool (and .def_67 .def_140))
(define-fun .def_321 () Bool (or .def_141 .def_320))
(define-fun .def_124 () (Array Int Int) (store .def_12 |.x{302}| 44))
(define-fun .def_125 () Bool (= |.x{293}| .def_124))
(define-fun .def_119 () Bool (and .def_53 .def_118))
(define-fun .def_120 () Bool (and .def_57 .def_119))
(define-fun .def_121 () Bool (and .def_59 .def_120))
(define-fun .def_122 () Bool (and |.loc{9}| .def_121))
(define-fun .def_126 () Bool (and .def_122 .def_125))
(define-fun .def_127 () Bool (and |.loc{10}| .def_126))
(define-fun .def_128 () Bool (and .def_63 .def_127))
(define-fun .def_129 () Bool (and .def_65 .def_128))
(define-fun .def_130 () Bool (and .def_67 .def_129))
(define-fun .def_322 () Bool (or .def_130 .def_321))
(define-fun .def_106 () Bool (and .def_55 .def_105))
(define-fun .def_107 () Bool (and .def_57 .def_106))
(define-fun .def_108 () Bool (and .def_75 .def_107))
(define-fun .def_109 () Bool (and .def_59 .def_108))
(define-fun .def_110 () Bool (and .def_62 .def_109))
(define-fun .def_111 () Bool (and |.loc{10}| .def_110))
(define-fun .def_112 () Bool (and .def_65 .def_111))
(define-fun .def_113 () Bool (and .def_99 .def_112))
(define-fun .def_114 () Bool (and .def_67 .def_113))
(define-fun .def_323 () Bool (or .def_114 .def_322))
(define-fun .def_96 () (Array Int Int) (store .def_12 |.x{302}| 43))
(define-fun .def_97 () Bool (= |.x{293}| .def_96))
(define-fun .def_89 () Bool (and .def_53 .def_88))
(define-fun .def_90 () Bool (and .def_57 .def_89))
(define-fun .def_91 () Bool (and .def_59 .def_90))
(define-fun .def_92 () Bool (and |.loc{10}| .def_91))
(define-fun .def_93 () Bool (and .def_63 .def_92))
(define-fun .def_94 () Bool (and .def_65 .def_93))
(define-fun .def_98 () Bool (and .def_94 .def_97))
(define-fun .def_100 () Bool (and .def_98 .def_99))
(define-fun .def_101 () Bool (and .def_82 .def_100))
(define-fun .def_102 () Bool (and .def_67 .def_101))
(define-fun .def_324 () Bool (or .def_102 .def_323))
(define-fun .def_30 () Bool (= .def_8 |.x{292}|))
(define-fun .def_325 () Bool (and .def_30 .def_324))
(define-fun .def_77 () Bool (<= |.x{291}| 0))
(define-fun .def_78 () Bool (not .def_77))
(define-fun .def_72 () Bool (<= |.x{292}| 0))
(define-fun .def_73 () Bool (not .def_72))
(define-fun .def_69 () Bool (and .def_43 .def_48))
(define-fun .def_70 () Bool (and .def_55 .def_69))
(define-fun .def_71 () Bool (and .def_57 .def_70))
(define-fun .def_74 () Bool (and .def_71 .def_73))
(define-fun .def_76 () Bool (and .def_74 .def_75))
(define-fun .def_79 () Bool (and .def_76 .def_78))
(define-fun .def_80 () Bool (and |.loc{9}| .def_79))
(define-fun .def_81 () Bool (and .def_65 .def_80))
(define-fun .def_83 () Bool (and .def_81 .def_82))
(define-fun .def_84 () Bool (and .def_67 .def_83))
(define-fun .def_326 () Bool (or .def_84 .def_325))
(define-fun .def_28 () (Array Int Int) (store .def_12 |.x{302}| 42))
(define-fun .def_29 () Bool (= |.x{293}| .def_28))
(define-fun .def_31 () Bool (and .def_29 .def_30))
(define-fun .def_36 () Bool (and .def_31 .def_35))
(define-fun .def_42 () Bool (and .def_36 .def_41))
(define-fun .def_44 () Bool (and .def_42 .def_43))
(define-fun .def_45 () Bool (and .def_18 .def_44))
(define-fun .def_47 () Bool (and .def_45 .def_46))
(define-fun .def_49 () Bool (and .def_47 .def_48))
(define-fun .def_54 () Bool (and .def_49 .def_53))
(define-fun .def_56 () Bool (and .def_54 .def_55))
(define-fun .def_58 () Bool (and .def_56 .def_57))
(define-fun .def_60 () Bool (and .def_58 .def_59))
(define-fun .def_61 () Bool (and |.loc{9}| .def_60))
(define-fun .def_64 () Bool (and .def_61 .def_63))
(define-fun .def_66 () Bool (and .def_64 .def_65))
(define-fun .def_68 () Bool (and .def_66 .def_67))
(define-fun .def_327 () Bool (! (or .def_68 .def_326) :trans true))
(define-fun .def_331 () Int (! |.x{320}| :next |.xpv{1}|))
(define-fun .def_346 () Bool (and .def_20 .def_82))
(define-fun .def_347 () Bool (and .def_57 .def_346))
(define-fun .def_348 () Bool (and .def_24 .def_347))
(define-fun .def_342 () Int (select .def_12 .def_331))
(define-fun .def_343 () Bool (= .def_342 50))
(define-fun .def_344 () Bool (not .def_343))
(define-fun .def_335 () Int (* (- 1) .def_331))
(define-fun .def_336 () Int (+ .def_14 .def_335))
(define-fun .def_337 () Int (+ .def_8 .def_336))
(define-fun .def_338 () Bool (= .def_337 0))
(define-fun .def_339 () Bool (and .def_280 .def_338))
(define-fun .def_332 () Bool (<= .def_331 0))
(define-fun .def_333 () Bool (not .def_332))
(define-fun .def_334 () Bool (or .def_38 .def_333))
(define-fun .def_340 () Bool (and .def_334 .def_339))
(define-fun .def_341 () Bool (and .def_46 .def_340))
(define-fun .def_345 () Bool (and .def_341 .def_344))
(define-fun .def_349 () Bool (and .def_345 .def_348))
(define-fun .def_351 () Bool (! (not .def_349) :invar-property 0))
(assert true)
